;; sequence(s): A239745
;; terms: 0 9 25 54 108 211 411 804 1582 3129 6213 12370 24672 49263 98431 196752 393378 786613 1573065 3145950
;; small program: loop((loop(x + x, y, 1 + 2) + x) + y, x, x) + x
;; fast program: ((((1 + 2) * (loop(x + x, x, 2) - 2)) + (((x * x) + x) div 2)) + x) + x
(set-logic UFNIA)
(define-fun divf ((a Int) (b Int)) Int (ite (< 0 b) (div a b) (div (- a) (- b))))
(declare-fun f1 (Int) Int)
(declare-fun g1 (Int Int) Int)
(declare-fun h1 () Int)
(declare-fun u1 (Int Int) Int)
(declare-fun v1 (Int Int) Int)
(declare-fun f0 (Int Int) Int)
(declare-fun g0 (Int) Int)
(declare-fun h0 (Int) Int)
(declare-fun u0 (Int Int) Int)
(declare-fun v0 (Int) Int)
(declare-fun small (Int) Int)
(declare-fun f2 (Int) Int)
(declare-fun g2 (Int) Int)
(declare-fun h2 () Int)
(declare-fun u2 (Int Int) Int)
(declare-fun v2 (Int) Int)
(declare-fun fast (Int) Int)
(assert (forall ((x Int)) (= (f1 x) (+ x x))))
(assert (forall ((x Int) (y Int)) (= (g1 x y) y)))
(assert (= h1 (+ 1 2)))
(assert (forall ((x Int) (y Int)) (= (u1 x y) (ite (<= x 0) y (f1 (u1 (- x 1) y))))))
(assert (forall ((x Int) (y Int)) (= (v1 x y) (u1 (g1 x y) h1))))
(assert (forall ((x Int) (y Int)) (= (f0 x y) (+ (+ (v1 x y) x) y))))
(assert (forall ((x Int)) (= (g0 x) x)))
(assert (forall ((x Int)) (= (h0 x) x)))
(assert (forall ((x Int) (y Int)) (= (u0 x y) (ite (<= x 0) y (f0 (u0 (- x 1) y) x)))))
(assert (forall ((x Int)) (= (v0 x) (u0 (g0 x) (h0 x)))))
(assert (forall ((x Int)) (= (small x) (+ (v0 x) x))))
(assert (forall ((x Int)) (= (f2 x) (+ x x))))
(assert (forall ((x Int)) (= (g2 x) x)))
(assert (= h2 2))
(assert (forall ((x Int) (y Int)) (= (u2 x y) (ite (<= x 0) y (f2 (u2 (- x 1) y))))))
(assert (forall ((x Int)) (= (v2 x) (u2 (g2 x) h2))))
(assert (forall ((x Int)) (= (fast x) (+ (+ (+ (* (+ 1 2) (- (v2 x) 2)) (divf (+ (* x x) x) 2)) x) x))))
(assert (exists ((c Int)) (and (>= c 0) (not (= (small c) (fast c))))))
(check-sat)
